50
    1    47    37
    2    81    71
    3    63    53
    4    86    76
    5    85    75
    6    87    77
    7    82    72
    8    15     5
    9    75    65
   10   101    91
   11    29    19
   12    92    82
   13    64    54
   14    81    71
   15    67    57
   16    43    33
   17    36    26
   18    70    60
   19    77    67
   20    42    32
   21    67    57
   22    58    48
   23    78    68
   24    46    36
   25    63    53
   26    90    80
   27    27    17
   28    69    59
   29   104    94
   30    78    68
   31    24    14
   32    59    49
   33    68    58
   34    89    79
   35   103    93
   36    57    47
   37    48    38
   38   106    96
   39    25    15
   40    61    51
   41    80    70
   42    53    43
   43    55    45
   44    42    32
   45    15     5
   46    99    89
   47    42    32
   48    83    73
   49    48    38
   50   100    90
1840
